cost: 738.99
Route 1:           0   18   14   44   29    0
Route 2:           0   21    5   40   11    9    0
Route 3:           0   23   31    3   15    0
Route 4:           0   25   27   24    2   28    6   37   22   46   42    1    0
Route 5:           0   34   47   41   33   30    0
Route 6:           0   39   10   45   20   26    0
Route 7:           0   43   36   12    7   49    0
Route 8:           0   48   38   19    8   35   17    0
Route 9:           0   50   32    4   16   13    0
